networks/zoo_104_531/zoo_104_531-lower.txt
Number of groups: 49
Flow 1: {1 12 0} {12 2 0} {2 54 0} 
Flow 2: {1 4 0} {4 56 0} 
Flow 3: {1 49 0} {49 8 0} {8 6 0} {6 58 0} 
Flow 4: {12 7 0} {7 59 0} 
Flow 5: {8 60 0} 
Flow 6: {8 10 0} {10 62 0} 
Flow 7: {12 64 0} 
Flow 8: {10 13 0} {13 65 0} 
Flow 9: {49 16 0} {16 68 0} 
Flow 10: {49 48 0} {48 17 0} {17 69 0} 
Flow 11: {8 20 0} {20 72 0} 
Flow 12: {8 21 0} {21 73 0} 
Flow 13: {8 22 0} {22 74 0} 
Flow 14: {49 23 0} {23 75 0} 
Flow 15: {21 31 0} {31 83 0} 
Flow 16: {49 36 0} {36 88 0} 
Flow 17: {12 37 0} {37 89 0} 
Flow 18: {10 38 0} {38 90 0} 
Flow 19: {49 40 0} {40 92 0} 
Flow 20: {49 43 0} {43 95 0} 
Flow 21: {49 44 0} {44 96 0} 
Flow 22: {16 45 0} {45 97 0} 
Flow 23: {49 46 0} {46 98 0} 
Flow 24: {48 47 0} {47 99 0} 
Flow 25: {48 100 0} 
Flow 26: {49 101 0} 
Flow 27: {1 50 0} {50 102 0} 
Flow 28: {49 52 0} {52 104 0} 
Flow 29: {12 1 0} {1 53 0} 
Flow 29: {2 12 0} Flow 30: {7 6 0} Flow 32: {7 8 0} Flow 39: {3 52 0} {52 49 0} {49 1 0} Flow 40: {49 4 0} Flow 41: {3 21 0} {21 8 0} Flow 42: {8 7 0} Flow 46: {52 46 0} {46 16 0} Flow 53: {49 50 0} Flow 55: {4 1 0} Flow 56: {4 49 0} Flow 66: {5 8 0} {8 49 0} Flow 67: {6 7 0} {7 12 0} Flow 68: {6 8 0} Flow 71: {7 10 0} Flow 81: {10 37 0} Flow 134: {9 8 0} Flow 135: {10 7 0} Flow 137: {10 8 0} Flow 143: {11 50 0} {50 1 0} Flow 145: {50 49 0} Flow 168: {13 10 0} Flow 178: {14 8 0} Flow 188: {16 49 0} Flow 200: {17 48 0} {48 49 0} Flow 210: {19 37 0} {37 10 0} Flow 211: {20 8 0} Flow 232: {21 3 0} Flow 238: {22 8 0} Flow 248: {23 49 0} Flow 272: {24 8 0} Flow 273: {25 50 0} Flow 274: {26 4 0} Flow 275: {27 6 0} Flow 285: {28 8 0} Flow 286: {29 52 0} Flow 287: {31 21 0} Flow 300: {32 52 0} Flow 301: {33 8 0} Flow 302: {34 49 0} Flow 303: {36 49 0} Flow 312: {37 12 0} Flow 323: {38 10 0} Flow 338: {39 4 0} Flow 339: {41 49 0} Flow 340: {42 49 0} Flow 341: {43 49 0} Flow 368: {44 49 0} Flow 380: {45 16 0} Flow 396: {45 17 0} {17 47 0} Flow 401: {46 49 0} Flow 422: {46 52 0} Flow 423: {47 48 0} Flow 431: {47 17 0} {17 45 0} Flow 442: {48 50 0} Flow 448: {8 5 0} {5 57 0} 
Flow 455: {8 14 0} {14 66 0} 
Flow 456: {49 15 0} {15 67 0} 
Flow 459: {1 18 0} {18 70 0} 
Flow 460: {37 19 0} {19 71 0} 
Flow 465: {8 24 0} {24 76 0} 
Flow 466: {50 25 0} {25 77 0} 
Flow 467: {4 26 0} {26 78 0} 
Flow 468: {6 27 0} {27 79 0} 
Flow 469: {8 28 0} {28 80 0} 
Flow 470: {52 29 0} {29 81 0} 
Flow 471: {49 30 0} {30 82 0} 
Flow 473: {52 32 0} {32 84 0} 
Flow 474: {8 33 0} {33 85 0} 
Flow 475: {49 34 0} {34 86 0} 
Flow 476: {52 35 0} {35 87 0} 
Flow 480: {4 39 0} {39 91 0} 
Flow 482: {49 41 0} {41 93 0} 
Flow 483: {49 42 0} {42 94 0} 
Flow 491: {49 51 0} {51 103 0} 
Flow 503: {51 49 0} Flow 519: {52 3 0} Time taken running everything: 1 seconds
