networks/zoo_104_531/zoo_104_531-lower.sol
<?xml version = "1.0" encoding="UTF-8" standalone="yes"?>
<CPLEXSolution version="1.2">
 <header
   problemName="networks/zoo_104_531/zoo_104_531-lower.lp"
   solutionName="incumbent"
   solutionIndex="-1"
   objectiveValue="49"
   solutionTypeValue="3"
   solutionTypeString="primal"
   solutionStatusValue="101"
   solutionStatusString="integer optimal solution"
   solutionMethodString="mip"
   primalFeasible="1"
   dualFeasible="1"
   MIPNodes="0"
   MIPIterations="0"
   writeLevel="3"/>
 <quality
   epInt="1.0000000000000001e-05"
   epRHS="9.9999999999999995e-07"
   maxIntInfeas="0"
   maxPrimalInfeas="0"
   maxX="1"
   maxSlack="1"/>
 <variables>
  <variable name="Y(1,2)" index="1" value="1"/>
  <variable name="Y(2,4)" index="104" value="1"/>
  <variable name="Y(3,6)" index="207" value="1"/>
  <variable name="Y(4,7)" index="309" value="1"/>
  <variable name="Y(5,8)" index="411" value="1"/>
  <variable name="Y(6,10)" index="514" value="1"/>
  <variable name="Y(7,12)" index="617" value="1"/>
  <variable name="Y(8,13)" index="719" value="1"/>
  <variable name="Y(9,16)" index="823" value="1"/>
  <variable name="Y(10,17)" index="925" value="1"/>
  <variable name="Y(11,20)" index="1029" value="1"/>
  <variable name="Y(12,21)" index="1131" value="1"/>
  <variable name="Y(13,22)" index="1233" value="1"/>
  <variable name="Y(14,23)" index="1335" value="1"/>
  <variable name="Y(15,31)" index="1444" value="1"/>
  <variable name="Y(16,36)" index="1550" value="1"/>
  <variable name="Y(17,37)" index="1652" value="1"/>
  <variable name="Y(18,38)" index="1754" value="1"/>
  <variable name="Y(19,40)" index="1857" value="1"/>
  <variable name="Y(20,43)" index="1961" value="1"/>
  <variable name="Y(21,44)" index="2063" value="1"/>
  <variable name="Y(22,45)" index="2165" value="1"/>
  <variable name="Y(23,46)" index="2267" value="1"/>
  <variable name="Y(24,47)" index="2369" value="1"/>
  <variable name="Y(25,48)" index="2471" value="1"/>
  <variable name="Y(26,49)" index="2573" value="1"/>
  <variable name="Y(27,50)" index="2675" value="1"/>
  <variable name="Y(28,52)" index="2778" value="1"/>
  <variable name="Y(29,1)" index="2828" value="1"/>
  <variable name="Y(448,5)" index="45151" value="1"/>
  <variable name="Y(455,14)" index="45867" value="1"/>
  <variable name="Y(456,15)" index="45969" value="1"/>
  <variable name="Y(459,18)" index="46275" value="1"/>
  <variable name="Y(460,19)" index="46377" value="1"/>
  <variable name="Y(465,24)" index="46887" value="1"/>
  <variable name="Y(466,25)" index="46989" value="1"/>
  <variable name="Y(467,26)" index="47091" value="1"/>
  <variable name="Y(468,27)" index="47193" value="1"/>
  <variable name="Y(469,28)" index="47295" value="1"/>
  <variable name="Y(470,29)" index="47397" value="1"/>
  <variable name="Y(471,30)" index="47499" value="1"/>
  <variable name="Y(473,32)" index="47703" value="1"/>
  <variable name="Y(474,33)" index="47805" value="1"/>
  <variable name="Y(475,34)" index="47907" value="1"/>
  <variable name="Y(476,35)" index="48009" value="1"/>
  <variable name="Y(480,39)" index="48417" value="1"/>
  <variable name="Y(482,41)" index="48621" value="1"/>
  <variable name="Y(483,42)" index="48723" value="1"/>
  <variable name="Y(491,51)" index="49540" value="1"/>
  <variable name="X(1,4,2)" index="53632" value="1"/>
  <variable name="X(1,12,1)" index="54162" value="1"/>
  <variable name="X(1,18,459)" index="55151" value="1"/>
  <variable name="X(1,49,3)" index="55226" value="1"/>
  <variable name="X(1,50,27)" index="55781" value="1"/>
  <variable name="X(1,53,29)" index="56314" value="1"/>
  <variable name="X(2,12,29)" index="56845" value="1"/>
  <variable name="X(2,54,1)" index="57348" value="1"/>
  <variable name="X(3,21,41)" index="57919" value="1"/>
  <variable name="X(3,52,39)" index="58448" value="1"/>
  <variable name="X(4,1,55)" index="58995" value="1"/>
  <variable name="X(4,26,467)" index="59938" value="1"/>
  <variable name="X(4,39,480)" index="60482" value="1"/>
  <variable name="X(4,49,56)" index="60589" value="1"/>
  <variable name="X(4,56,2)" index="61066" value="1"/>
  <variable name="X(5,8,66)" index="61661" value="1"/>
  <variable name="X(5,57,448)" index="62574" value="1"/>
  <variable name="X(6,7,67)" index="62724" value="1"/>
  <variable name="X(6,8,68)" index="63256" value="1"/>
  <variable name="X(6,27,468)" index="64187" value="1"/>
  <variable name="X(6,58,3)" index="64253" value="1"/>
  <variable name="X(7,6,30)" index="64811" value="1"/>
  <variable name="X(7,8,32)" index="65344" value="1"/>
  <variable name="X(7,10,71)" index="65914" value="1"/>
  <variable name="X(7,12,67)" index="66441" value="1"/>
  <variable name="X(7,59,4)" index="66909" value="1"/>
  <variable name="X(8,5,448)" index="67884" value="1"/>
  <variable name="X(8,6,3)" index="67970" value="1"/>
  <variable name="X(8,7,42)" index="68540" value="1"/>
  <variable name="X(8,10,6)" index="69035" value="1"/>
  <variable name="X(8,14,455)" index="70015" value="1"/>
  <variable name="X(8,20,11)" index="70102" value="1"/>
  <variable name="X(8,21,12)" index="70634" value="1"/>
  <variable name="X(8,22,13)" index="71166" value="1"/>
  <variable name="X(8,24,465)" index="72149" value="1"/>
  <variable name="X(8,28,469)" index="72684" value="1"/>
  <variable name="X(8,33,474)" index="73220" value="1"/>
  <variable name="X(8,49,66)" index="73343" value="1"/>
  <variable name="X(8,60,5)" index="73813" value="1"/>
  <variable name="X(9,8,134)" index="74473" value="1"/>
  <variable name="X(10,7,135)" index="75005" value="1"/>
  <variable name="X(10,8,137)" index="75538" value="1"/>
  <variable name="X(10,13,8)" index="75940" value="1"/>
  <variable name="X(10,37,81)" index="76544" value="1"/>
  <variable name="X(10,38,18)" index="77012" value="1"/>
  <variable name="X(10,62,6)" index="77531" value="1"/>
  <variable name="X(11,50,143)" index="78199" value="1"/>
  <variable name="X(12,1,29)" index="78616" value="1"/>
  <variable name="X(12,2,1)" index="79119" value="1"/>
  <variable name="X(12,7,4)" index="79653" value="1"/>
  <variable name="X(12,37,17)" index="80197" value="1"/>
  <variable name="X(12,64,7)" index="80718" value="1"/>
  <variable name="X(13,10,168)" index="81410" value="1"/>
  <variable name="X(13,65,8)" index="81781" value="1"/>
  <variable name="X(14,8,178)" index="82482" value="1"/>
  <variable name="X(14,66,455)" index="83290" value="1"/>
  <variable name="X(15,67,456)" index="83822" value="1"/>
  <variable name="X(16,45,22)" index="83919" value="1"/>
  <variable name="X(16,49,188)" index="84616" value="1"/>
  <variable name="X(16,68,9)" index="84968" value="1"/>
  <variable name="X(17,45,431)" index="85921" value="1"/>
  <variable name="X(17,47,396)" index="86417" value="1"/>
  <variable name="X(17,48,200)" index="86752" value="1"/>
  <variable name="X(17,69,10)" index="87093" value="1"/>
  <variable name="X(18,70,459)" index="88073" value="1"/>
  <variable name="X(19,37,210)" index="88355" value="1"/>
  <variable name="X(19,71,460)" index="89136" value="1"/>
  <variable name="X(20,8,211)" index="89418" value="1"/>
  <variable name="X(20,72,11)" index="89749" value="1"/>
  <variable name="X(21,3,232)" index="90501" value="1"/>
  <variable name="X(21,8,41)" index="90841" value="1"/>
  <variable name="X(21,31,15)" index="91346" value="1"/>
  <variable name="X(21,73,12)" index="91874" value="1"/>
  <variable name="X(22,8,238)" index="92631" value="1"/>
  <variable name="X(22,74,13)" index="92937" value="1"/>
  <variable name="X(23,49,248)" index="93703" value="1"/>
  <variable name="X(23,75,14)" index="94000" value="1"/>
  <variable name="X(24,8,272)" index="94789" value="1"/>
  <variable name="X(24,76,465)" index="95513" value="1"/>
  <variable name="X(25,50,273)" index="95852" value="1"/>
  <variable name="X(25,77,466)" index="96576" value="1"/>
  <variable name="X(26,4,274)" index="96915" value="1"/>
  <variable name="X(26,78,467)" index="97639" value="1"/>
  <variable name="X(27,6,275)" index="97978" value="1"/>
  <variable name="X(27,79,468)" index="98702" value="1"/>
  <variable name="X(28,8,285)" index="99050" value="1"/>
  <variable name="X(28,80,469)" index="99765" value="1"/>
  <variable name="X(29,52,286)" index="100113" value="1"/>
  <variable name="X(29,81,470)" index="100828" value="1"/>
  <variable name="X(30,82,471)" index="101360" value="1"/>
  <variable name="X(31,21,287)" index="101707" value="1"/>
  <variable name="X(31,83,15)" index="101966" value="1"/>
  <variable name="X(32,52,300)" index="102782" value="1"/>
  <variable name="X(32,84,473)" index="103486" value="1"/>
  <variable name="X(33,8,301)" index="103845" value="1"/>
  <variable name="X(33,85,474)" index="104549" value="1"/>
  <variable name="X(34,49,302)" index="104908" value="1"/>
  <variable name="X(34,86,475)" index="105612" value="1"/>
  <variable name="X(35,87,476)" index="106144" value="1"/>
  <variable name="X(36,49,303)" index="106502" value="1"/>
  <variable name="X(36,88,16)" index="106746" value="1"/>
  <variable name="X(37,10,210)" index="107471" value="1"/>
  <variable name="X(37,12,312)" index="108104" value="1"/>
  <variable name="X(37,19,460)" index="108783" value="1"/>
  <variable name="X(37,89,17)" index="108871" value="1"/>
  <variable name="X(38,10,323)" index="109708" value="1"/>
  <variable name="X(38,90,18)" index="109934" value="1"/>
  <variable name="X(39,4,338)" index="110785" value="1"/>
  <variable name="X(39,91,480)" index="111458" value="1"/>
  <variable name="X(40,92,19)" index="111528" value="1"/>
  <variable name="X(41,49,339)" index="112379" value="1"/>
  <variable name="X(41,93,482)" index="113053" value="1"/>
  <variable name="X(42,49,340)" index="113442" value="1"/>
  <variable name="X(42,94,483)" index="114116" value="1"/>
  <variable name="X(43,49,341)" index="114505" value="1"/>
  <variable name="X(43,95,20)" index="114715" value="1"/>
  <variable name="X(44,49,368)" index="115594" value="1"/>
  <variable name="X(44,96,21)" index="115778" value="1"/>
  <variable name="X(45,16,380)" index="116668" value="1"/>
  <variable name="X(45,17,396)" index="117215" value="1"/>
  <variable name="X(45,97,22)" index="117372" value="1"/>
  <variable name="X(46,16,46)" index="117927" value="1"/>
  <variable name="X(46,49,401)" index="118813" value="1"/>
  <variable name="X(46,52,422)" index="119365" value="1"/>
  <variable name="X(46,98,23)" index="119497" value="1"/>
  <variable name="X(47,17,431)" index="120436" value="1"/>
  <variable name="X(47,48,423)" index="120959" value="1"/>
  <variable name="X(47,99,24)" index="121091" value="1"/>
  <variable name="X(48,17,10)" index="121608" value="1"/>
  <variable name="X(48,47,24)" index="122153" value="1"/>
  <variable name="X(48,49,200)" index="122860" value="1"/>
  <variable name="X(48,50,442)" index="123633" value="1"/>
  <variable name="X(48,100,25)" index="123747" value="1"/>
  <variable name="X(49,1,39)" index="124292" value="1"/>
  <variable name="X(49,4,40)" index="124824" value="1"/>
  <variable name="X(49,8,3)" index="125318" value="1"/>
  <variable name="X(49,15,456)" index="126302" value="1"/>
  <variable name="X(49,16,9)" index="126386" value="1"/>
  <variable name="X(49,23,14)" index="126922" value="1"/>
  <variable name="X(49,30,471)" index="127910" value="1"/>
  <variable name="X(49,34,475)" index="128445" value="1"/>
  <variable name="X(49,36,16)" index="128517" value="1"/>
  <variable name="X(49,40,19)" index="129051" value="1"/>
  <variable name="X(49,41,482)" index="130045" value="1"/>
  <variable name="X(49,42,483)" index="130577" value="1"/>
  <variable name="X(49,43,20)" index="130645" value="1"/>
  <variable name="X(49,44,21)" index="131177" value="1"/>
  <variable name="X(49,46,23)" index="131710" value="1"/>
  <variable name="X(49,48,10)" index="132228" value="1"/>
  <variable name="X(49,50,53)" index="132802" value="1"/>
  <variable name="X(49,51,491)" index="133771" value="1"/>
  <variable name="X(49,52,28)" index="133839" value="1"/>
  <variable name="X(49,101,26)" index="134368" value="1"/>
  <variable name="X(50,1,143)" index="135016" value="1"/>
  <variable name="X(50,25,466)" index="135870" value="1"/>
  <variable name="X(50,49,145)" index="136080" value="1"/>
  <variable name="X(50,102,27)" index="136493" value="1"/>
  <variable name="X(51,49,503)" index="137500" value="1"/>
  <variable name="X(51,103,491)" index="138019" value="1"/>
  <variable name="X(52,3,519)" index="138578" value="1"/>
  <variable name="X(52,29,470)" index="139060" value="1"/>
  <variable name="X(52,32,473)" index="139594" value="1"/>
  <variable name="X(52,35,476)" index="140128" value="1"/>
  <variable name="X(52,46,46)" index="140229" value="1"/>
  <variable name="X(52,49,39)" index="140753" value="1"/>
  <variable name="X(52,104,28)" index="141273" value="1"/>
 </variables>
</CPLEXSolution>
